examples/dynamic/debug6/MulliganEconomicsModel0028e.smt2
(set-info :smt-lib-version 2.6)
(set-logic QF_NRA)
(set-info :source |
Generated by: Casey Mulligan, Russell Bradford, James H. Davenport, Matthew England, and ZakTonks
Generated on: 2018-04-19
Generator: TheoryGuru
Application: NGM: The government purchases multiplier, example set
Target solver: Z3
|)
(set-info :license "https://creativecommons.org/licenses/by/4.0/")
(set-info :category "industrial")
(set-info :status sat)

; Code written by TheoryGuru
; Mulligan model #0028
;   is part of the example library included in "Quantifier Elimination for Reasoning in Economics" April 2018
;   by Mulligan, Bradford, Davenport, England, and Tonks
;   available at bathpaper.economicreasoning.com .
; Economics background for this and other examples is provided at examples.economicreasoning.com .

(declare-fun v1 () Real)
(declare-fun v2 () Real)
(declare-fun v3 () Real)
(declare-fun v4 () Real)
(declare-fun v5 () Real)
(declare-fun v6 () Real)
(declare-fun v7 () Real)
(declare-fun v8 () Real)
(declare-fun v9 () Real)
(declare-fun v10 () Real)
(declare-fun v11 () Real)
(declare-fun v12 () Real)
(declare-fun v13 () Real)
(declare-fun v14 () Real)
(declare-fun v15 () Real)
(declare-fun v16 () Real)
(declare-fun v17 () Real)
(declare-fun v18 () Real)

; input assumptions
(define-fun assumptions () Bool (and 
(> (* v14 v18) (* v16 v17))
(> (* v14 v17) (* v15 v16))
(> (* v2 v9) 0)
(> (* (* v2 v2) v9) (* v1 v10 v2))
(< (* (* v1 v1) v12 v2) 0)
(> v10 0)
(< (* v12 v2) 0)
(> v1 0)
(> v2 0)
(> v11 0)
(< v13 0)
(> v3 (- 1))
(> v16 0)
(< v14 0)
(< v18 0)
(< v15 0)
(> (* v15 v18) (* v17 v17))
(= (+ (* v14 v18 (* v2 v2 v2) v4) (* v14 v17 (* v2 v2 v2) v7)) (+ (* v16 v17 (* v2 v2 v2) v4) (* (- 1) v1 v12 (* v16 v16) v2 v5) (* (* v1 v1) v12 (* v16 v16) v7) (* v15 v16 (* v2 v2 v2) v7)))
(= (+ v2 (* v2 v4) (* (- 1) v2 v5) (* (- 1) v10 v2 v5) (* v2 v6) (* v1 v10 v7) (* (- 1) v2 v7 v9)) 0)
(= (+ (* v18 v4) (* 2 v18 v3 v4) (* v18 (* v3 v3) v4) (* v17 v7) (* 2 v17 v3 v7) (* v17 (* v3 v3) v7) (* v11 v8)) (+ (* v13 v6) (* v13 v3 v6)))
(= v8 0)
(= v5 0)
))

; input hypothesis
(define-fun hypothesis () Bool
(and (> v4 (- 1)) (> v7 0) (> (+ (* v10 (* v2 v2) v5) (* (- 1) v1 v10 v2 v7) (* (* v2 v2) v7 v9)) 0) (< v4 0) (< v6 0) (< (+ (* v10 (* v2 v2) v5) (* (- 1) v1 v10 v2 v7) (* (* v2 v2) v7 v9)) (* v2 v2)))
)

(assert assumptions)
(assert hypothesis)
(check-sat) ; checking the existence of an example to assumptions => hypothesis


(exit)