z3_origin/MulliganEconomicsModel0028e.txt
sat
(:elim-unconstrained  2
 :max-memory          18.52
 :memory              18.42
 :nlsat-arith-var     15
 :nlsat-atoms         37
 :nlsat-bool-var      1
 :nlsat-clauses       30
 :nlsat-conflicts     2
 :nlsat-propagations  40
 :nlsat-stages        21
 :num-allocs          75362
 :rlimit-count        7259
 :solve-eqs-elim-vars 7
 :solve-eqs-steps     75
 :time                0.01
 :total-time          0.02)
